p cnf 11 21
11 -10 -3 0
-11 8 -4 0
11 -8 -4 0
11 7 -1 0
11 5 -4 0
-11 5 -1 0
-10 7 -5 0
10 6 3 0
-10 -4 -3 0
-9 -8 5 0
-9 -6 -1 0
-9 3 -1 0
8 -7 3 0
-8 -6 5 0
-8 6 1 0
8 3 -1 0
-7 5 -3 0
-7 -4 -3 0
7 -4 1 0
6 -5 3 0
-6 4 3 0
